nbObjet = 10;
poidsMax = 800.0;
valeur = [808, 674, 452, 586, 884, 140, 915, 229, 596, 722];
poids = [736.5, 340.2, 16.5, 455.8, 312.2, 402.6, 699.2, 216.0, 714.8, 678.5];
incomp = [[0, 1, 1, 1, 0, 1, 1, 1, 1, 0], [1, 0, 1, 1, 1, 0, 1, 1, 0, 0], [1, 1, 0, 1, 1, 1, 1, 1, 1, 1], [1, 1, 1, 0, 1, 1, 1, 0, 1, 1], [0, 1, 1, 1, 0, 1, 1, 1, 1, 0], [1, 0, 1, 1, 1, 0, 1, 1, 1, 1], [1, 1, 1, 1, 1, 1, 0, 1, 1, 1], [1, 1, 1, 0, 1, 1, 1, 0, 0, 1], [1, 0, 1, 1, 1, 1, 1, 0, 0, 1], [0, 0, 1, 1, 0, 1, 1, 1, 1, 0]];